PROBLEM NAME: eil51_n6
KNAPSACK DATA TYPE: uncorrelated, similar weights
DIMENSION: 6
NUMBER OF ITEMS: 25
CAPACITY OF KNAPSACK: 227388
MIN SPEED: 0.1
MAX SPEED: 1
RENTING RATIO: 3.40
EDGE_WEIGHT_TYPE: CEIL_2D
NODE_COORD_SECTION	(INDEX, X, Y):
1	31	62
2	52	41
3	27	23
4	57	58
5	62	42
6	43	67
ITEMS SECTION	(INDEX, PROFIT, WEIGHT, ASSIGNED NODE NUMBER):
1	984	100092	6
2	955	100045	6
3	901	100058	6
4	882	100065	6
5	874	100016	6
6	845	100014	4
7	795	100036	4
8	738	100006	4
9	715	100033	4
10	682	100027	4
11	574	100043	5
12	485	100093	5
13	433	100030	5
14	421	100091	5
15	367	100093	5
16	326	100005	2
17	322	100048	2
18	299	100032	2
19	252	100021	2
20	248	100015	2
21	122	100066	3
22	94	100097	3
23	72	100099	3
24	43	100056	3
25	9	100090	3
